c description: Random 3-CNF over 24 variables and 102 clauses
c generator: CNFgen (0.9.2)
c copyright: (C) 2012-2022 Massimo Lauria <massimo.lauria@uniroma1.it>
c url: https://massimolauria.net/cnfgen
c command line: cnfgen --output CNF_4.28/24_bit_102_594.cnf randkcnf 3 24 102
c
p cnf 24 102
3 22 -24 0
3 -4 -10 0
4 -5 -16 0
-6 9 24 0
2 8 22 0
1 13 21 0
3 -20 22 0
6 11 -16 0
-5 -13 -16 0
-3 -11 -23 0
16 18 -24 0
-1 10 -14 0
-3 -7 -9 0
5 11 -14 0
7 19 -22 0
5 -11 -13 0
5 -15 16 0
4 10 -14 0
-1 -9 -13 0
-4 6 17 0
-2 4 8 0
6 -14 17 0
-9 13 -24 0
-6 -17 24 0
-12 15 21 0
6 -9 -15 0
4 -10 -16 0
-10 -18 22 0
6 -15 -21 0
14 -17 20 0
-14 -21 24 0
7 -13 17 0
12 -15 -22 0
6 14 -19 0
-2 6 -13 0
3 4 16 0
-3 -21 22 0
7 8 -11 0
-6 7 -23 0
-8 12 14 0
-8 -18 24 0
4 -18 -20 0
-2 -7 -13 0
11 16 -17 0
-1 -2 -5 0
-3 5 20 0
-12 17 -24 0
-7 10 -22 0
-14 -17 -24 0
-5 9 23 0
13 19 -23 0
-8 11 -12 0
-8 -20 22 0
2 -7 24 0
1 -6 9 0
-2 6 -15 0
-1 3 22 0
5 -11 19 0
13 -22 -24 0
-2 -19 -24 0
-5 15 -21 0
-2 4 10 0
4 8 -20 0
-3 15 -23 0
18 -20 21 0
8 -11 15 0
-4 7 -16 0
1 -21 23 0
-2 15 16 0
-2 -4 -15 0
1 -5 24 0
-11 13 16 0
-10 -16 21 0
-4 -15 -24 0
10 11 21 0
6 9 15 0
-2 -3 -19 0
-12 18 -20 0
-9 -19 -22 0
-3 -4 22 0
-3 4 -19 0
9 15 23 0
-8 -16 24 0
11 16 -20 0
-5 6 15 0
-4 14 -24 0
4 -5 21 0
7 -11 20 0
5 -7 12 0
-3 4 23 0
-3 -15 -21 0
10 16 -22 0
-7 13 -18 0
-12 18 24 0
1 14 22 0
-2 -5 -10 0
8 -10 -22 0
15 -19 23 0
2 -8 -12 0
1 8 13 0
3 -5 10 0
1 -3 -11 0
